p tdp 50 49
1 24
1 47
2 21
2 33
3 15
3 43
4 5
4 20
5 40
6 29
6 47
7 23
7 26
8 33
8 50
9 35
9 39
10 16
10 28
11 18
11 35
12 22
12 31
13 17
14 17
14 25
15 40
16 36
18 42
19 27
19 42
20 46
21 28
22 25
23 30
24 32
26 29
27 38
30 50
31 34
32 41
34 46
36 37
37 49
38 48
39 41
43 45
44 45
44 49
